10
0 19 3 7 20 19 8 19 10 4 
1 0 15 9 11 1 7 12 17 18 
17 17 0 18 1 15 7 5 14 6 
4 13 9 0 12 5 6 18 13 1 
1 9 17 18 0 3 9 17 13 1 
9 2 5 12 11 0 14 7 3 17 
18 4 9 14 16 2 0 15 14 18 
8 7 8 10 8 2 19 0 19 6 
20 6 4 15 9 5 12 19 0 17 
13 13 3 19 15 9 9 7 16 0 
